
  18    0


   0   8 2 3 4 5 6 15 16 17 
   9   6 14 13 10 9 8 7 
   8   2 12 11 
   9   2 10 9 
   3   1 8 
  10   1 7 
   7   1 18
   1   1 18
   6   1 18
   3   1 18
   7   1 18
   9   1 18
   4   1 18
   3   1 18
   7   1 18
   7   1 18
   7   1 18
   0   0 
